
50
12702

883 683
292 92
918 618
1042 842
1035 835
816 516
832 632
570 370
729 529
408 108
883 683
801 601
582 282
579 379
937 737
744 444
1260 960
1272 972
1039 839
292 92
276 76
489 289
562 362
905 705
1027 827
763 563
840 640
774 574
235 35
727 527
414 214
617 417
209 9
856 656
1111 911
269 69
781 581
324 24
552 352
360 160
1061 861
929 729
1097 897
418 218
919 719
900 700
711 511
1117 917
825 625
483 283
